#######################################
### Exact MIP solver for the HHCRSP ###
#######################################
-- Instance file: new-instances/HHCRSP_25_5_83_1.6_C_C.txt
-- Max threads: 4
-- Time limit: 999999 seconds
-- Use initial solution: No
Trivial flow violations prevented generating 918 variables.
Model exported.
Version identifier: 20.1.0.0 | 2020-11-10 | 9bedb6d68
CPXPARAM_Threads                                 4
CPXPARAM_TimeLimit                               999999
Tried aggregator 1 time.
LP Presolve eliminated 456 rows and 181 columns.
Reduced LP has 1430 rows, 1381 columns, and 10228 nonzeros.
Presolve time = 0.01 sec. (3.27 ticks)
Symmetry aggregator did 1255 additional substitutions.

Iteration log . . .
Iteration:     1   Dual objective     =             0.000000

Dual crossover.
  Dual:  Fixing 20 variables.
       19 DMoves:  Infeasibility  3.66373598e-15  Objective  4.46666667e+01
        0 DMoves:  Infeasibility  3.10862447e-15  Objective  4.46666667e+01
  Dual:  Pushed 1, exchanged 19.
  Primal:  Fixing 12 variables.
       11 PMoves:  Infeasibility  0.00000000e+00  Objective  4.46666667e+01
        0 PMoves:  Infeasibility  0.00000000e+00  Objective  4.46666667e+01
  Primal:  Pushed 1, exchanged 11.

Solution status from MIP model:
-- Processing time: 0.009 sec.
-- Memory used: 15.0898 MB
-- Best bound: inf
-- Obj value: 44.6667
-- Gap: inf%
-- Total distance: 134
-- Total tardiness: 0
-- Largest tardiness: 0
